200
150
120
119
119
118
118
118
118
117
116
116
115
115
115
114
114
113
112
112
111
111
111
110
110
109
108
108
108
108
107
107
106
105
105
103
102
100
100
100
100
100
100
99
99
97
97
97
97
97
96
96
95
95
95
95
94
94
92
92
92
92
91
91
90
90
87
87
87
87
86
85
85
83
83
83
83
83
82
82
81
81
80
79
79
79
78
78
78
78
77
77
76
76
75
75
75
74
73
73
73
73
73
73
73
72
71
71
71
70
70
69
69
69
69
68
68
67
66
66
66
66
65
65
65
65
65
65
63
63
62
62
62
62
61
60
60
59
59
59
58
58
57
57
57
56
56
56
56
56
55
55
55
53
53
53
53
53
52
52
51
50
50
50
49
49
49
49
48
46
45
45
44
44
44
43
43
42
41
41
40
40
40
40
39
39
39
38
37
36
36
36
33
33
32
31
31
31
30
30
30
30
